Instance Name : r204
Date : 2022-07-18
Solution
Route 1 : 27 69 31 88 7 19 11 62 10 70 1 50 76 3 79 78 34 81 33 51 9 35 71 65 66 20 30 32 90 63 64 49 36 46 47 48 82 18 52
Route 2 : 89 6 94 95 97 92 98 37 42 15 43 14 44 38 86 16 85 93 59 99 96 60 83 8 45 17 84 5 61 91 100 13 58
Route 3 : 28 26 54 39 67 23 56 75 22 41 57 87 2 53 40 21 73 74 72 4 55 25 24 29 77 68 80 12
